g3 1 1 0	# problem cyclohexane
 2 0 14 0 0 	# vars, constraints, objectives, ranges, eqns
 0 13 0 0 0 0	# nonlinear constrs, objs; ccons: lin, nonlin, nd, nzlb
 0 0	# network constraints: nonlinear, linear
 0 2 0 	# nonlinear vars in constraints, objectives, both
 0 0 0 1	# linear network variables; functions; arith, flags
 0 0 0 0 0 	# discrete variables: binary, integer, nonlinear (b,c,o)
 0 20 	# nonzeros in Jacobian, obj. gradient
 0 0	# max name lengths: constraints, variables
 0 0 0 0 0	# common exprs: b,c,o,c1,o1
O0 0
o0
o54
6
o43
v0
o2
n3
o43
v1
o2
n0.83775
o43
o0
o16
o44
o2
n-1.396315028901734
v1
n1
o2
n16.036
o43
o0
o16
o44
o2
n-1.69978323699422
v1
n1
o2
n24.636
o43
o0
o16
o44
o2
n-3.946893063583815
v1
n1
o2
n7.1715
o43
o0
o16
o44
o2
n-8.11958092485549
v1
n1
n0.9891140602
O1 0
o5
v0
n-1.0
O2 0
o16
o5
v0
n-2.0
O3 0
o0
o54
5
o2
n3.0
o5
v1
n-1.0
o2
o2
n27.257723988439317
o5
o0
o16
o44
o2
n-1.69978323699422
v1
n1.0
n-1.0
o44
o2
n-1.69978323699422
v1
o2
o2
n1.1697629154624278
o5
o0
o16
o44
o2
n-1.396315028901734
v1
n1.0
n-1.0
o44
o2
n-1.396315028901734
v1
o2
o2
n97.23565751445086
o5
o0
o16
o44
o2
n-3.946893063583815
v1
n1.0
n-1.0
o44
o2
n-3.946893063583815
v1
o2
o2
n58.229574602601154
o5
o0
o16
o44
o2
n-8.11958092485549
v1
n1.0
n-1.0
o44
o2
n-8.11958092485549
v1
n1.6359660572
O4 0
o54
9
o2
n-3.0
o5
v1
n-2.0
o2
o2
n-383.77874217679755
o5
o0
o16
o44
o2
n-3.946893063583815
v1
n1.0
n-1.0
o44
o2
n-3.946893063583815
v1
o2
o2
n-383.77874217679755
o5
o0
o16
o44
o2
n-3.946893063583815
v1
n1.0
n-2.0
o44
o2
n-7.89378612716763
v1
o2
o2
n-46.33222231416438
o5
o0
o16
o44
o2
n-1.69978323699422
v1
n1.0
n-1.0
o44
o2
n-1.69978323699422
v1
o2
o2
n-46.33222231416438
o5
o0
o16
o44
o2
n-1.69978323699422
v1
n1.0
n-2.0
o44
o2
n-3.39956647398844
v1
o2
o2
n-1.6333575391120967
o5
o0
o16
o44
o2
n-1.396315028901734
v1
n1.0
n-1.0
o44
o2
n-1.396315028901734
v1
o2
o2
n-1.6333575391120967
o5
o0
o16
o44
o2
n-1.396315028901734
v1
n1.0
n-2.0
o44
o2
n-2.792630057803468
v1
o2
o2
n-472.79974320573007
o5
o0
o16
o44
o2
n-8.11958092485549
v1
n1.0
n-1.0
o44
o2
n-8.11958092485549
v1
o2
o2
n-472.79974320573007
o5
o0
o16
o44
o2
n-8.11958092485549
v1
n1.0
n-2.0
o44
o2
n-16.23916184971098
v1
O5 0
o54
20
o2
o2
n0.05483581
o5
v0
n4
v1
o2
o2
n1.607734
v0
o5
v1
n0.37
o2
o2
n-2.375928
v0
o5
v1
n0.79
o2
o2
n-0.5137709
o5
v0
n2
o5
v1
n1.075
o2
o2
n0.1858417
o5
v0
n3
o5
v1
n0.37
o2
o2
o2
n-0.9007515
v0
o5
v1
n2.4
o44
o16
o5
v0
n2
o2
o2
o2
n-0.5628776
o5
v0
n3
o5
v1
n2.5
o44
o16
o5
v0
n2
o2
o2
o2
n0.2903717
o5
v0
n2
o5
v1
n0.5
o44
o2
n-1.0
v0
o2
o2
o2
n-0.3279141
o5
v0
n2
o5
v1
n3
o44
o16
o5
v0
n2
o2
o2
o2
n-0.03177644
o5
v0
n7
o5
v1
n1.06
o44
o2
n-1.0
v0
o2
o2
o2
n0.8668676
v0
o5
v1
n1.6
o44
o0
o2
n-0.99
o5
o0
v0
n-0.73
n2
o2
n-0.38
o5
o0
v1
n-0.65
n2
o2
o2
o2
n-0.1962725
v0
o5
v1
n0.37
o44
o0
o2
n-1.43
o5
o0
v0
n-0.75
n2
o2
n-4.2
o5
o0
v1
n-0.63
n2
o2
o2
o2
n-0.1425992
o5
v0
n3
o5
v1
n1.33
o44
o0
o2
n-0.97
o5
o0
v0
n-0.48
n2
o2
n-1.2
o5
o0
v1
n-1.14
n2
o2
o2
o2
n0.004197016
o5
v0
n3
o5
v1
n2.5
o44
o0
o2
n-1.93
o5
o0
v0
n-2.32
n2
o2
n-0.9
o5
o0
v1
n-0.09
n2
o2
o2
o2
n0.1776584
o5
v0
n2
o5
v1
n0.9
o44
o0
o2
n-0.92
o5
o0
v0
n-0.2
n2
o2
n-1.2
o5
o0
v1
n-0.56
n2
o2
o2
o2
n-0.04433903
o5
v0
n2
o5
v1
n0.5
o44
o0
o2
n-1.27
o5
o0
v0
n-1.33
n2
o2
n-2.6
o5
o0
v1
n-0.4
n2
o2
o2
o2
n-0.03861246
o5
v0
n3
o5
v1
n0.73
o44
o0
o2
n-0.87
o5
o0
v0
n-0.68
n2
o2
n-5.3
o5
o0
v1
n-1.01
n2
o2
o2
o2
n0.07399692
o5
v0
n2
o5
v1
n0.2
o44
o0
o2
n-0.82
o5
o0
v0
n-1.11
n2
o2
n-4.4
o5
o0
v1
n-0.45
n2
o2
o2
o2
n0.02036006
o5
v0
n3
o5
v1
n1.5
o44
o0
o2
n-1.4
o5
o0
v0
n-1.47
n2
o2
n-4.2
o5
o0
v1
n-0.85
n2
o2
o2
o2
n0.00272825
o5
v0
n2
o5
v1
n1.5
o44
o0
o2
n-3
o5
o0
v0
n-0.99
n2
o2
n-25
o5
o0
v1
n-0.86
n2
O6 0
o54
35
o2
n1.607734
o5
v1
n0.37
o2
n-2.375928
o5
v1
n0.79
o2
o2
n0.8668676
o5
v1
n1.6
o44
o0
o2
n-0.38
o5
o0
v1
n-0.65
n2.0
o2
n-0.99
o5
o0
v0
n-0.73
n2.0
o2
o2
n0.21934324
v1
o5
v0
n3.0
o2
o2
n0.5575251
o5
v0
n2.0
o5
v1
n0.37
o2
o2
n-1.0275418
v0
o5
v1
n1.075
o2
o2
n-0.1962725
o5
v1
n0.37
o44
o0
o2
n-4.2
o5
o0
v1
n-0.63
n2.0
o2
n-1.43
o5
o0
v0
n-0.75
n2.0
o2
o2
n-0.9007515
o5
v1
n2.4
o44
o16
o5
v0
n2.0
o2
o2
o2
n0.3553168
v0
o5
v1
n0.9
o44
o0
o2
n-1.2
o5
o0
v1
n-0.56
n2.0
o2
n-0.92
o5
o0
v0
n-0.2
n2.0
o2
o2
o2
n0.03177644
o5
v0
n7.0
o5
v1
n1.06
o44
o2
n-1.0
v0
o2
o2
o2
n1.1257552
o5
v0
n4.0
o5
v1
n2.5
o44
o16
o5
v0
n2.0
o2
o2
o2
n0.5807434
v0
o5
v1
n0.5
o44
o2
n-1.0
v0
o2
o2
o2
n0.14799384
v0
o5
v1
n0.2
o44
o0
o2
n-4.4
o5
o0
v1
n-0.45
n2.0
o2
n-0.82
o5
o0
v0
n-1.11
n2.0
o2
o2
o2
n0.6558282
o5
v0
n3.0
o5
v1
n3.0
o44
o16
o5
v0
n2.0
o2
o2
o2
n0.06108018
o5
v0
n2.0
o5
v1
n1.5
o44
o0
o2
n-1.4
o5
o0
v0
n-1.47
n2.0
o2
n-4.2
o5
o0
v1
n-0.85
n2.0
o2
o2
o2
n0.0054565
v0
o5
v1
n1.5
o44
o0
o2
n-25.0
o5
o0
v1
n-0.86
n2.0
o2
n-3.0
o5
o0
v0
n-0.99
n2.0
o2
o2
o2
n0.012591047999999999
o5
v0
n2.0
o5
v1
n2.5
o44
o0
o2
n-0.9
o5
o0
v1
n-0.09
n2.0
o2
n-1.93
o5
o0
v0
n-2.32
n2.0
o2
o2
o2
n1.801503
o5
v0
n2.0
o5
v1
n2.4
o44
o16
o5
v0
n2.0
o2
o2
o2
n-0.08867806
v0
o5
v1
n0.5
o44
o0
o2
n-1.27
o5
o0
v0
n-1.33
n2.0
o2
n-2.6
o5
o0
v1
n-0.4
n2.0
o2
o2
o2
n-0.22243508
o5
v0
n6.0
o5
v1
n1.06
o44
o2
n-1.0
v0
o2
o2
o2
n-0.2903717
o5
v0
n2.0
o5
v1
n0.5
o44
o2
n-1.0
v0
o2
o2
o2
n-0.6558282
v0
o5
v1
n3.0
o44
o16
o5
v0
n2.0
o2
o2
o2
n-0.4277976
o5
v0
n2.0
o5
v1
n1.33
o44
o0
o2
n-0.97
o5
o0
v0
n-0.48
n2.0
o2
n-1.2
o5
o0
v1
n-1.14
n2.0
o2
o2
o2
n-1.6886328
o5
v0
n2.0
o5
v1
n2.5
o44
o16
o5
v0
n2.0
o2
o2
o2
n-0.11583738
o5
v0
n2.0
o5
v1
n0.73
o44
o0
o2
n-5.3
o5
o0
v1
n-1.01
n2.0
o2
n-0.87
o5
o0
v0
n-0.68
n2.0
o2
o2
o2
o2
n0.8668676
v0
o5
v1
n1.6
o0
o2
n-1.98
v0
n1.4454
o44
o0
o2
n-0.38
o5
o0
v1
n-0.65
n2.0
o2
n-0.99
o5
o0
v0
n-0.73
n2.0
o2
o2
o2
o2
n0.02036006
o5
v0
n3.0
o5
v1
n1.5
o0
o2
n-2.8
v0
n4.116
o44
o0
o2
n-1.4
o5
o0
v0
n-1.47
n2.0
o2
n-4.2
o5
o0
v1
n-0.85
n2.0
o2
o2
o2
o2
n0.1776584
o5
v0
n2.0
o5
v1
n0.9
o0
o2
n-1.84
v0
n0.36800000000000005
o44
o0
o2
n-1.2
o5
o0
v1
n-0.56
n2.0
o2
n-0.92
o5
o0
v0
n-0.2
n2.0
o2
o2
o2
o2
n0.004197016
o5
v0
n3.0
o5
v1
n2.5
o0
o2
n-3.86
v0
n8.9552
o44
o0
o2
n-0.9
o5
o0
v1
n-0.09
n2.0
o2
n-1.93
o5
o0
v0
n-2.32
n2.0
o2
o2
o2
o2
n0.07399692
o5
v0
n2.0
o5
v1
n0.2
o0
o2
n-1.64
v0
n1.8204
o44
o0
o2
n-4.4
o5
o0
v1
n-0.45
n2.0
o2
n-0.82
o5
o0
v0
n-1.11
n2.0
o2
o2
o2
o2
n0.00272825
o5
v0
n2.0
o5
v1
n1.5
o0
o2
n-6.0
v0
n5.9399999999999995
o44
o0
o2
n-25.0
o5
o0
v1
n-0.86
n2.0
o2
n-3.0
o5
o0
v0
n-0.99
n2.0
o2
o2
o2
o2
n-0.04433903
o5
v0
n2.0
o5
v1
n0.5
o0
o2
n-2.54
v0
n3.3782
o44
o0
o2
n-1.27
o5
o0
v0
n-1.33
n2.0
o2
n-2.6
o5
o0
v1
n-0.4
n2.0
o2
o2
o2
o2
n-0.03861246
o5
v0
n3.0
o5
v1
n0.73
o0
o2
n-1.74
v0
n1.1832
o44
o0
o2
n-5.3
o5
o0
v1
n-1.01
n2.0
o2
n-0.87
o5
o0
v0
n-0.68
n2.0
o2
o2
o2
o2
n-0.1425992
o5
v0
n3.0
o5
v1
n1.33
o0
o2
n-1.94
v0
n0.9311999999999999
o44
o0
o2
n-0.97
o5
o0
v0
n-0.48
n2.0
o2
n-1.2
o5
o0
v1
n-1.14
n2.0
o2
o2
o2
o2
n-0.1962725
v0
o5
v1
n0.37
o0
o2
n-2.86
v0
n2.145
o44
o0
o2
n-4.2
o5
o0
v1
n-0.63
n2.0
o2
n-1.43
o5
o0
v0
n-0.75
n2.0
O7 0
o54
66
o2
n-1.0275418
o5
v1
n1.075
o2
o2
n0.65802972
v1
o5
v0
n2.0
o2
o2
n0.3553168
o5
v1
n0.9
o44
o0
o2
n-1.2
o5
o0
v1
n-0.56
n2.0
o2
n-0.92
o5
o0
v0
n-0.2
n2.0
o2
o2
n0.5807434
o5
v1
n0.5
o44
o2
n-1.0
v0
o2
o2
n0.14799384
o5
v1
n0.2
o44
o0
o2
n-4.4
o5
o0
v1
n-0.45
n2.0
o2
n-0.82
o5
o0
v0
n-1.11
n2.0
o2
o2
n1.1150502
o5
v1
n0.37
v0
o2
o2
n0.0054565
o5
v1
n1.5
o44
o0
o2
n-3.0
o5
o0
v0
n-0.99
n2.0
o2
n-25.0
o5
o0
v1
n-0.86
n2.0
o2
o2
n-0.08867806
o5
v1
n0.5
o44
o0
o2
n-1.27
o5
o0
v0
n-1.33
n2.0
o2
n-2.6
o5
o0
v1
n-0.4
n2.0
o2
o2
n-0.6558282
o5
v1
n3.0
o44
o16
o5
v0
n2.0
o2
o2
o2
n0.5613393499999999
v0
o5
v1
n0.37
o44
o0
o2
n-4.2
o5
o0
v1
n-0.63
n2.0
o2
n-1.43
o5
o0
v0
n-0.75
n2.0
o2
o2
o2
n0.5613393499999999
o5
v1
n0.37
o0
v0
n-0.75
o44
o0
o2
n-4.2
o5
o0
v1
n-0.63
n2.0
o2
n-1.43
o5
o0
v0
n-0.75
n2.0
o2
o2
o2
n0.8668676
o5
v1
n1.6
o0
o2
n-1.98
v0
n1.4454
o44
o0
o2
n-0.38
o5
o0
v1
n-0.65
n2.0
o2
n-0.99
o5
o0
v0
n-0.73
n2.0
o2
o2
o2
n0.0671856804
o5
v1
n0.73
o5
v0
n3.0
o44
o0
o2
n-5.3
o5
o0
v1
n-1.01
n2.0
o2
n-0.87
o5
o0
v0
n-0.68
n2.0
o2
o2
o2
n0.44487016
o5
v1
n1.06
o5
v0
n6.0
o44
o2
n-1.0
v0
o2
o2
o2
n7.880286399999999
o5
v1
n2.5
o5
v0
n3.0
o44
o16
o5
v0
n2.0
o2
o2
o2
n0.2903717
o5
v1
n0.5
o5
v0
n2.0
o44
o2
n-1.0
v0
o2
o2
o2
n3.279141
o5
v1
n3.0
o5
v0
n2.0
o44
o16
o5
v0
n2.0
o2
o2
o2
n0.1126211362
o5
v1
n0.5
o5
v0
n2.0
o44
o0
o2
n-1.27
o5
o0
v0
n-1.33
n2.0
o2
n-2.6
o5
o0
v1
n-0.4
n2.0
o2
o2
o2
n0.12216036
o5
v1
n1.5
v0
o44
o0
o2
n-1.4
o5
o0
v0
n-1.47
n2.0
o2
n-4.2
o5
o0
v1
n-0.85
n2.0
o2
o2
o2
n0.276642448
o5
v1
n1.33
o5
v0
n3.0
o44
o0
o2
n-0.97
o5
o0
v0
n-0.48
n2.0
o2
n-1.2
o5
o0
v1
n-1.14
n2.0
o2
o2
o2
n5.404509
o5
v1
n2.4
v0
o44
o16
o5
v0
n2.0
o2
o2
o2
n0.025182095999999998
o5
v1
n2.5
v0
o44
o0
o2
n-0.9
o5
o0
v1
n-0.09
n2.0
o2
n-1.93
o5
o0
v0
n-2.32
n2.0
o2
o2
o2
n-0.016200481759999996
o5
v1
n2.5
o5
v0
n3.0
o44
o0
o2
n-0.9
o5
o0
v1
n-0.09
n2.0
o2
n-1.93
o5
o0
v0
n-2.32
n2.0
o2
o2
o2
n-0.326891456
o5
v1
n0.9
o5
v0
n2.0
o44
o0
o2
n-1.2
o5
o0
v1
n-0.56
n2.0
o2
n-0.92
o5
o0
v0
n-0.2
n2.0
o2
o2
o2
n-0.03177644
o5
v1
n1.06
o5
v0
n7.0
o44
o2
n-1.0
v0
o2
o2
o2
n-0.016369500000000002
o5
v1
n1.5
o5
v0
n2.0
o44
o0
o2
n-3.0
o5
o0
v0
n-0.99
n2.0
o2
n-25.0
o5
o0
v1
n-0.86
n2.0
o2
o2
o2
n-2.2515104
o5
v1
n2.5
o5
v0
n5.0
o44
o16
o5
v0
n2.0
o2
o2
o2
n-0.5807434
v0
o5
v1
n0.5
o44
o2
n-1.0
v0
o2
o2
o2
n-0.5807434
o5
v1
n0.5
v0
o44
o2
n-1.0
v0
o2
o2
o2
n-1.3116564
o5
v1
n3.0
o5
v0
n4.0
o44
o16
o5
v0
n2.0
o2
o2
o2
n-0.8555952
o5
v1
n1.33
v0
o44
o0
o2
n-0.97
o5
o0
v0
n-0.48
n2.0
o2
n-1.2
o5
o0
v1
n-1.14
n2.0
o2
o2
o2
n-1.33461048
o5
v1
n1.06
o5
v0
n5.0
o44
o2
n-1.0
v0
o2
o2
o2
n-0.1962725
o5
v1
n0.37
o0
o2
n-2.86
v0
n2.145
o44
o0
o2
n-4.2
o5
o0
v1
n-0.63
n2.0
o2
n-1.43
o5
o0
v0
n-0.75
n2.0
o2
o2
o2
n-3.3772656
o5
v1
n2.5
v0
o44
o16
o5
v0
n2.0
o2
o2
o2
n-1.716397848
v0
o5
v1
n1.6
o44
o0
o2
n-0.38
o5
o0
v1
n-0.65
n2.0
o2
n-0.99
o5
o0
v0
n-0.73
n2.0
o2
o2
o2
n-1.716397848
o5
v1
n1.6
o0
v0
n-0.73
o44
o0
o2
n-0.38
o5
o0
v1
n-0.65
n2.0
o2
n-0.99
o5
o0
v0
n-0.73
n2.0
o2
o2
o2
n-3.603006
o5
v1
n2.4
o5
v0
n3.0
o44
o16
o5
v0
n2.0
o2
o2
o2
n-0.05700816799999999
o5
v1
n1.5
o5
v0
n3.0
o44
o0
o2
n-1.4
o5
o0
v0
n-1.47
n2.0
o2
n-4.2
o5
o0
v1
n-0.85
n2.0
o2
o2
o2
n-0.23167476
o5
v1
n0.73
v0
o44
o0
o2
n-5.3
o5
o0
v1
n-1.01
n2.0
o2
n-0.87
o5
o0
v0
n-0.68
n2.0
o2
o2
o2
n-0.12135494879999999
o5
v1
n0.2
o5
v0
n2.0
o44
o0
o2
n-4.4
o5
o0
v1
n-0.45
n2.0
o2
n-0.82
o5
o0
v0
n-1.11
n2.0
o2
o2
o2
o2
n0.3553168
o5
v1
n0.9
v0
o0
o2
n-1.84
v0
n0.36800000000000005
o44
o0
o2
n-1.2
o5
o0
v1
n-0.56
n2.0
o2
n-0.92
o5
o0
v0
n-0.2
n2.0
o2
o2
o2
o2
n0.14799384
o5
v1
n0.2
v0
o0
o2
n-1.64
v0
n1.8204
o44
o0
o2
n-4.4
o5
o0
v1
n-0.45
n2.0
o2
n-0.82
o5
o0
v0
n-1.11
n2.0
o2
o2
o2
o2
n0.2015570412
o5
v1
n0.73
o5
v0
n2.0
o0
v0
n-0.68
o44
o0
o2
n-5.3
o5
o0
v1
n-1.01
n2.0
o2
n-0.87
o5
o0
v0
n-0.68
n2.0
o2
o2
o2
o2
n0.2252422724
v0
o5
v1
n0.5
o0
v0
n-1.33
o44
o0
o2
n-1.27
o5
o0
v0
n-1.33
n2.0
o2
n-2.6
o5
o0
v1
n-0.4
n2.0
o2
o2
o2
o2
n0.06108018
o5
v1
n1.5
o5
v0
n2.0
o0
o2
n-2.8
v0
n4.116
o44
o0
o2
n-1.4
o5
o0
v0
n-1.47
n2.0
o2
n-4.2
o5
o0
v1
n-0.85
n2.0
o2
o2
o2
o2
n0.0054565
o5
v1
n1.5
v0
o0
o2
n-6.0
v0
n5.9399999999999995
o44
o0
o2
n-3.0
o5
o0
v0
n-0.99
n2.0
o2
n-25.0
o5
o0
v1
n-0.86
n2.0
o2
o2
o2
o2
n0.012591047999999999
o5
v1
n2.5
o5
v0
n2.0
o0
o2
n-3.86
v0
n8.9552
o44
o0
o2
n-0.9
o5
o0
v1
n-0.09
n2.0
o2
n-1.93
o5
o0
v0
n-2.32
n2.0
o2
o2
o2
o2
n0.829927344
o5
v1
n1.33
o5
v0
n2.0
o0
v0
n-0.48
o44
o0
o2
n-0.97
o5
o0
v0
n-0.48
n2.0
o2
n-1.2
o5
o0
v1
n-1.14
n2.0
o2
o2
o2
o2
n-0.08867806
o5
v1
n0.5
v0
o0
o2
n-2.54
v0
n3.3782
o44
o0
o2
n-1.27
o5
o0
v0
n-1.33
n2.0
o2
n-2.6
o5
o0
v1
n-0.4
n2.0
o2
o2
o2
o2
n-0.653782912
v0
o5
v1
n0.9
o0
v0
n-0.2
o44
o0
o2
n-1.2
o5
o0
v1
n-0.56
n2.0
o2
n-0.92
o5
o0
v0
n-0.2
n2.0
o2
o2
o2
o2
n-0.032739000000000004
v0
o5
v1
n1.5
o0
v0
n-0.99
o44
o0
o2
n-3.0
o5
o0
v0
n-0.99
n2.0
o2
n-25.0
o5
o0
v1
n-0.86
n2.0
o2
o2
o2
o2
n-0.4277976
o5
v1
n1.33
o5
v0
n2.0
o0
o2
n-1.94
v0
n0.9311999999999999
o44
o0
o2
n-0.97
o5
o0
v0
n-0.48
n2.0
o2
n-1.2
o5
o0
v1
n-1.14
n2.0
o2
o2
o2
o2
n-0.171024504
o5
v1
n1.5
o5
v0
n2.0
o0
v0
n-1.47
o44
o0
o2
n-1.4
o5
o0
v0
n-1.47
n2.0
o2
n-4.2
o5
o0
v1
n-0.85
n2.0
o2
o2
o2
o2
n-0.048601445279999995
o5
v1
n2.5
o5
v0
n2.0
o0
v0
n-2.32
o44
o0
o2
n-0.9
o5
o0
v1
n-0.09
n2.0
o2
n-1.93
o5
o0
v0
n-2.32
n2.0
o2
o2
o2
o2
n-0.11583738
o5
v1
n0.73
o5
v0
n2.0
o0
o2
n-1.74
v0
n1.1832
o44
o0
o2
n-5.3
o5
o0
v1
n-1.01
n2.0
o2
n-0.87
o5
o0
v0
n-0.68
n2.0
o2
o2
o2
o2
n-0.24270989759999997
v0
o5
v1
n0.2
o0
v0
n-1.11
o44
o0
o2
n-4.4
o5
o0
v1
n-0.45
n2.0
o2
n-0.82
o5
o0
v0
n-1.11
n2.0
o2
o2
o2
o2
o2
n0.5613393499999999
v0
o5
v1
n0.37
o0
v0
n-0.75
o0
o2
n-2.86
v0
n2.145
o44
o0
o2
n-4.2
o5
o0
v1
n-0.63
n2.0
o2
n-1.43
o5
o0
v0
n-0.75
n2.0
o2
o2
o2
o2
o2
n0.0671856804
o5
v1
n0.73
o5
v0
n3.0
o0
v0
n-0.68
o0
o2
n-1.74
v0
n1.1832
o44
o0
o2
n-5.3
o5
o0
v1
n-1.01
n2.0
o2
n-0.87
o5
o0
v0
n-0.68
n2.0
o2
o2
o2
o2
o2
n0.1126211362
o5
v1
n0.5
o5
v0
n2.0
o0
v0
n-1.33
o0
o2
n-2.54
v0
n3.3782
o44
o0
o2
n-1.27
o5
o0
v0
n-1.33
n2.0
o2
n-2.6
o5
o0
v1
n-0.4
n2.0
o2
o2
o2
o2
o2
n0.276642448
o5
v1
n1.33
o5
v0
n3.0
o0
v0
n-0.48
o0
o2
n-1.94
v0
n0.9311999999999999
o44
o0
o2
n-0.97
o5
o0
v0
n-0.48
n2.0
o2
n-1.2
o5
o0
v1
n-1.14
n2.0
o2
o2
o2
o2
o2
n-0.016200481759999996
o5
v1
n2.5
o5
v0
n3.0
o0
v0
n-2.32
o0
o2
n-3.86
v0
n8.9552
o44
o0
o2
n-0.9
o5
o0
v1
n-0.09
n2.0
o2
n-1.93
o5
o0
v0
n-2.32
n2.0
o2
o2
o2
o2
o2
n-0.326891456
o5
v1
n0.9
o5
v0
n2.0
o0
v0
n-0.2
o0
o2
n-1.84
v0
n0.36800000000000005
o44
o0
o2
n-1.2
o5
o0
v1
n-0.56
n2.0
o2
n-0.92
o5
o0
v0
n-0.2
n2.0
o2
o2
o2
o2
o2
n-0.016369500000000002
o5
v1
n1.5
o5
v0
n2.0
o0
v0
n-0.99
o0
o2
n-6.0
v0
n5.9399999999999995
o44
o0
o2
n-3.0
o5
o0
v0
n-0.99
n2.0
o2
n-25.0
o5
o0
v1
n-0.86
n2.0
o2
o2
o2
o2
o2
n-1.716397848
v0
o5
v1
n1.6
o0
v0
n-0.73
o0
o2
n-1.98
v0
n1.4454
o44
o0
o2
n-0.38
o5
o0
v1
n-0.65
n2.0
o2
n-0.99
o5
o0
v0
n-0.73
n2.0
o2
o2
o2
o2
o2
n-0.05700816799999999
o5
v1
n1.5
o5
v0
n3.0
o0
v0
n-1.47
o0
o2
n-2.8
v0
n4.116
o44
o0
o2
n-1.4
o5
o0
v0
n-1.47
n2.0
o2
n-4.2
o5
o0
v1
n-0.85
n2.0
o2
o2
o2
o2
o2
n-0.12135494879999999
o5
v1
n0.2
o5
v0
n2.0
o0
v0
n-1.11
o0
o2
n-1.64
v0
n1.8204
o44
o0
o2
n-4.4
o5
o0
v1
n-0.45
n2.0
o2
n-0.82
o5
o0
v0
n-1.11
n2.0
O8 0
o54
30
o2
n0.05483581
o5
v0
n4.0
o2
o2
n0.068761429
o5
v0
n3.0
o5
v1
n-0.63
o2
o2
n0.59486158
v0
o5
v1
n-0.63
o2
o2
n-1.8769831200000002
v0
o5
v1
n-0.20999999999999996
o2
o2
n-0.5523037175
o5
v0
n2.0
o5
v1
n0.07499999999999996
o2
o2
o2
n0.014799383999999999
o5
v0
n2.0
o5
v1
n-0.8
o44
o0
o2
n-4.4
o5
o0
v1
n-0.45
n2.0
o2
n-0.82
o5
o0
v0
n-1.11
n2.0
o2
o2
o2
n0.0040923750000000005
o5
v0
n2.0
o5
v1
n0.5
o44
o0
o2
n-25.0
o5
o0
v1
n-0.86
n2.0
o2
n-3.0
o5
o0
v0
n-0.99
n2.0
o2
o2
o2
n0.14518585
o5
v0
n2.0
o5
v1
n-0.5
o44
o2
n-1.0
v0
o2
o2
o2
n0.010492539999999998
o5
v0
n3.0
o5
v1
n1.5
o44
o0
o2
n-0.9
o5
o0
v1
n-0.09
n2.0
o2
n-1.93
o5
o0
v0
n-2.32
n2.0
o2
o2
o2
n1.38698816
v0
o5
v1
n0.6000000000000001
o44
o0
o2
n-0.38
o5
o0
v1
n-0.65
n2.0
o2
n-0.99
o5
o0
v0
n-0.73
n2.0
o2
o2
o2
n0.03054009
o5
v0
n3.0
o5
v1
n0.5
o44
o0
o2
n-1.4
o5
o0
v0
n-1.47
n2.0
o2
n-4.2
o5
o0
v1
n-0.85
n2.0
o2
o2
o2
n0.15989256
o5
v0
n2.0
o5
v1
n-0.09999999999999998
o44
o0
o2
n-1.2
o5
o0
v1
n-0.56
n2.0
o2
n-0.92
o5
o0
v0
n-0.2
n2.0
o2
o2
o2
n-0.072620825
v0
o5
v1
n-0.63
o44
o0
o2
n-4.2
o5
o0
v1
n-0.63
n2.0
o2
n-1.43
o5
o0
v0
n-0.75
n2.0
o2
o2
o2
n-0.022169515
o5
v0
n2.0
o5
v1
n-0.5
o44
o0
o2
n-1.27
o5
o0
v0
n-1.33
n2.0
o2
n-2.6
o5
o0
v1
n-0.4
n2.0
o2
o2
o2
n-2.1618036
v0
o5
v1
n1.4
o44
o16
o5
v0
n2.0
o2
o2
o2
n-1.407194
o5
v0
n3.0
o5
v1
n1.5
o44
o16
o5
v0
n2.0
o2
o2
o2
n-0.0281870958
o5
v0
n3.0
o5
v1
n-0.27
o44
o0
o2
n-5.3
o5
o0
v1
n-1.01
n2.0
o2
n-0.87
o5
o0
v0
n-0.68
n2.0
o2
o2
o2
n-0.0336830264
o5
v0
n7.0
o5
v1
n0.06000000000000005
o44
o2
n-1.0
v0
o2
o2
o2
n-0.18965693600000003
o5
v0
n3.0
o5
v1
n0.33000000000000007
o44
o0
o2
n-0.97
o5
o0
v0
n-0.48
n2.0
o2
n-1.2
o5
o0
v1
n-1.14
n2.0
o2
o2
o2
n-0.9837423
o5
v0
n2.0
o5
v1
n2.0
o44
o16
o5
v0
n2.0
o2
o2
o2
o2
n0.8668676
v0
o5
v1
n1.6
o0
o2
n-0.76
v1
n0.49400000000000005
o44
o0
o2
n-0.38
o5
o0
v1
n-0.65
n2.0
o2
n-0.99
o5
o0
v0
n-0.73
n2.0
o2
o2
o2
o2
n0.02036006
o5
v0
n3.0
o5
v1
n1.5
o0
o2
n-8.4
v1
n7.14
o44
o0
o2
n-1.4
o5
o0
v0
n-1.47
n2.0
o2
n-4.2
o5
o0
v1
n-0.85
n2.0
o2
o2
o2
o2
n0.1776584
o5
v0
n2.0
o5
v1
n0.9
o0
o2
n-2.4
v1
n1.344
o44
o0
o2
n-1.2
o5
o0
v1
n-0.56
n2.0
o2
n-0.92
o5
o0
v0
n-0.2
n2.0
o2
o2
o2
o2
n0.004197016
o5
v0
n3.0
o5
v1
n2.5
o0
o2
n-1.8
v1
n0.162
o44
o0
o2
n-0.9
o5
o0
v1
n-0.09
n2.0
o2
n-1.93
o5
o0
v0
n-2.32
n2.0
o2
o2
o2
o2
n0.07399692
o5
v0
n2.0
o5
v1
n0.2
o0
o2
n-8.8
v1
n3.9600000000000004
o44
o0
o2
n-4.4
o5
o0
v1
n-0.45
n2.0
o2
n-0.82
o5
o0
v0
n-1.11
n2.0
o2
o2
o2
o2
n0.00272825
o5
v0
n2.0
o5
v1
n1.5
o0
o2
n-50.0
v1
n43.0
o44
o0
o2
n-25.0
o5
o0
v1
n-0.86
n2.0
o2
n-3.0
o5
o0
v0
n-0.99
n2.0
o2
o2
o2
o2
n-0.04433903
o5
v0
n2.0
o5
v1
n0.5
o0
o2
n-5.2
v1
n2.08
o44
o0
o2
n-1.27
o5
o0
v0
n-1.33
n2.0
o2
n-2.6
o5
o0
v1
n-0.4
n2.0
o2
o2
o2
o2
n-0.03861246
o5
v0
n3.0
o5
v1
n0.73
o0
o2
n-10.6
v1
n10.706
o44
o0
o2
n-5.3
o5
o0
v1
n-1.01
n2.0
o2
n-0.87
o5
o0
v0
n-0.68
n2.0
o2
o2
o2
o2
n-0.1425992
o5
v0
n3.0
o5
v1
n1.33
o0
o2
n-2.4
v1
n2.7359999999999998
o44
o0
o2
n-0.97
o5
o0
v0
n-0.48
n2.0
o2
n-1.2
o5
o0
v1
n-1.14
n2.0
o2
o2
o2
o2
n-0.1962725
v0
o5
v1
n0.37
o0
o2
n-8.4
v1
n5.292000000000001
o44
o0
o2
n-4.2
o5
o0
v1
n-0.63
n2.0
o2
n-1.43
o5
o0
v0
n-0.75
n2.0
O9 0
o54
59
o2
o2
n0.3941664552
v0
o5
v1
n-1.21
o2
o2
n-0.04331970027
o5
v0
n3.0
o5
v1
n-1.63
o2
o2
n-0.3747627954
v0
o5
v1
n-1.63
o2
o2
n-0.04142277881249997
o5
v0
n2.0
o5
v1
n-0.925
o2
o2
o2
n0.34223808
o5
v0
n3.0
o5
v1
n1.33
o44
o0
o2
n-0.97
o5
o0
v0
n-0.48
n2.0
o2
n-1.2
o5
o0
v1
n-1.14
n2.0
o2
o2
o2
n0.0110847575
o5
v0
n2.0
o5
v1
n-1.5
o44
o0
o2
n-1.27
o5
o0
v0
n-1.33
n2.0
o2
n-2.6
o5
o0
v1
n-0.4
n2.0
o2
o2
o2
n1.648689
v0
o5
v1
n0.37
o44
o0
o2
n-4.2
o5
o0
v1
n-0.63
n2.0
o2
n-1.43
o5
o0
v0
n-0.75
n2.0
o2
o2
o2
n0.01573881
o5
v0
n3.0
o5
v1
n0.5
o44
o0
o2
n-0.9
o5
o0
v1
n-0.09
n2.0
o2
n-1.93
o5
o0
v0
n-2.32
n2.0
o2
o2
o2
n0.0020461875000000003
o5
v0
n2.0
o5
v1
n-0.5
o44
o0
o2
n-3.0
o5
o0
v0
n-0.99
n2.0
o2
n-25.0
o5
o0
v1
n-0.86
n2.0
o2
o2
o2
n0.04575111975
v0
o5
v1
n-1.63
o44
o0
o2
n-4.2
o5
o0
v1
n-0.63
n2.0
o2
n-1.43
o5
o0
v0
n-0.75
n2.0
o2
o2
o2
n0.015270045
o5
v0
n3.0
o5
v1
n-0.5
o44
o0
o2
n-1.4
o5
o0
v0
n-1.47
n2.0
o2
n-4.2
o5
o0
v1
n-0.85
n2.0
o2
o2
o2
n0.409292076
o5
v0
n3.0
o5
v1
n0.73
o44
o0
o2
n-5.3
o5
o0
v1
n-1.01
n2.0
o2
n-0.87
o5
o0
v0
n-0.68
n2.0
o2
o2
o2
n0.8321928960000001
v0
o5
v1
n-0.3999999999999999
o44
o0
o2
n-0.38
o5
o0
v1
n-0.65
n2.0
o2
n-0.99
o5
o0
v0
n-0.73
n2.0
o2
o2
o2
n0.230562956
o5
v0
n2.0
o5
v1
n0.5
o44
o0
o2
n-1.27
o5
o0
v0
n-1.33
n2.0
o2
n-2.6
o5
o0
v1
n-0.4
n2.0
o2
o2
o2
n0.007610515866
o5
v0
n3.0
o5
v1
n-1.27
o44
o0
o2
n-5.3
o5
o0
v1
n-1.01
n2.0
o2
n-0.87
o5
o0
v0
n-0.68
n2.0
o2
o2
o2
n-0.06258678888000002
o5
v0
n3.0
o5
v1
n-0.6699999999999999
o44
o0
o2
n-0.97
o5
o0
v0
n-0.48
n2.0
o2
n-1.2
o5
o0
v1
n-1.14
n2.0
o2
o2
o2
n-0.002020981584000002
o5
v0
n7.0
o5
v1
n-0.94
o44
o2
n-1.0
v0
o2
o2
o2
n-2.110791
o5
v0
n3.0
o5
v1
n0.5
o44
o16
o5
v0
n2.0
o2
o2
o2
n-0.072592925
o5
v0
n2.0
o5
v1
n-1.5
o44
o2
n-1.0
v0
o2
o2
o2
n-0.007554628799999999
o5
v0
n3.0
o5
v1
n2.5
o44
o0
o2
n-0.9
o5
o0
v1
n-0.09
n2.0
o2
n-1.93
o5
o0
v0
n-2.32
n2.0
o2
o2
o2
n-0.015989255999999997
o5
v0
n2.0
o5
v1
n-1.1
o44
o0
o2
n-1.2
o5
o0
v1
n-0.56
n2.0
o2
n-0.92
o5
o0
v0
n-0.2
n2.0
o2
o2
o2
n-0.13641250000000002
o5
v0
n2.0
o5
v1
n1.5
o44
o0
o2
n-3.0
o5
o0
v0
n-0.99
n2.0
o2
n-25.0
o5
o0
v1
n-0.86
n2.0
o2
o2
o2
n-0.651172896
o5
v0
n2.0
o5
v1
n0.2
o44
o0
o2
n-4.4
o5
o0
v1
n-0.45
n2.0
o2
n-0.82
o5
o0
v0
n-1.11
n2.0
o2
o2
o2
n-0.658819376
v0
o5
v1
n1.6
o44
o0
o2
n-0.38
o5
o0
v1
n-0.65
n2.0
o2
n-0.99
o5
o0
v0
n-0.73
n2.0
o2
o2
o2
n-0.171024504
o5
v0
n3.0
o5
v1
n1.5
o44
o0
o2
n-1.4
o5
o0
v0
n-1.47
n2.0
o2
n-4.2
o5
o0
v1
n-0.85
n2.0
o2
o2
o2
n-3.0265250399999997
v0
o5
v1
n0.3999999999999999
o44
o16
o5
v0
n2.0
o2
o2
o2
n-0.0118395072
o5
v0
n2.0
o5
v1
n-1.8
o44
o0
o2
n-4.4
o5
o0
v1
n-0.45
n2.0
o2
n-0.82
o5
o0
v0
n-1.11
n2.0
o2
o2
o2
n-0.42638015999999995
o5
v0
n2.0
o5
v1
n0.9
o44
o0
o2
n-1.2
o5
o0
v1
n-0.56
n2.0
o2
n-0.92
o5
o0
v0
n-0.2
n2.0
o2
o2
o2
n-1.9674846
o5
v0
n2.0
v1
o44
o16
o5
v0
n2.0
o2
o2
o2
o2
n0.014799383999999999
o5
v0
n2.0
o5
v1
n-0.8
o0
o2
n-8.8
v1
n3.9600000000000004
o44
o0
o2
n-4.4
o5
o0
v1
n-0.45
n2.0
o2
n-0.82
o5
o0
v0
n-1.11
n2.0
o2
o2
o2
o2
n0.0040923750000000005
o5
v0
n2.0
o5
v1
n0.5
o0
o2
n-50.0
v1
n43.0
o44
o0
o2
n-3.0
o5
o0
v0
n-0.99
n2.0
o2
n-25.0
o5
o0
v1
n-0.86
n2.0
o2
o2
o2
o2
n0.29878321548
o5
v0
n3.0
o5
v1
n-0.27
o0
v1
n-1.01
o44
o0
o2
n-5.3
o5
o0
v1
n-1.01
n2.0
o2
n-0.87
o5
o0
v0
n-0.68
n2.0
o2
o2
o2
o2
n0.010492539999999998
o5
v0
n3.0
o5
v1
n1.5
o0
o2
n-1.8
v1
n0.162
o44
o0
o2
n-0.9
o5
o0
v1
n-0.09
n2.0
o2
n-1.93
o5
o0
v0
n-2.32
n2.0
o2
o2
o2
o2
n1.38698816
v0
o5
v1
n0.6000000000000001
o0
o2
n-0.76
v1
n0.49400000000000005
o44
o0
o2
n-0.38
o5
o0
v1
n-0.65
n2.0
o2
n-0.99
o5
o0
v0
n-0.73
n2.0
o2
o2
o2
o2
n0.03054009
o5
v0
n3.0
o5
v1
n0.5
o0
o2
n-8.4
v1
n7.14
o44
o0
o2
n-1.4
o5
o0
v0
n-1.47
n2.0
o2
n-4.2
o5
o0
v1
n-0.85
n2.0
o2
o2
o2
o2
n0.6100149300000001
v0
o5
v1
n-0.63
o0
v1
n-0.63
o44
o0
o2
n-4.2
o5
o0
v1
n-0.63
n2.0
o2
n-1.43
o5
o0
v0
n-0.75
n2.0
o2
o2
o2
o2
n0.15989256
o5
v0
n2.0
o5
v1
n-0.09999999999999998
o0
o2
n-2.4
v1
n1.344
o44
o0
o2
n-1.2
o5
o0
v1
n-0.56
n2.0
o2
n-0.92
o5
o0
v0
n-0.2
n2.0
o2
o2
o2
o2
n0.45517664640000005
o5
v0
n3.0
o5
v1
n0.33000000000000007
o0
v1
n-1.14
o44
o0
o2
n-0.97
o5
o0
v0
n-0.48
n2.0
o2
n-1.2
o5
o0
v1
n-1.14
n2.0
o2
o2
o2
o2
n0.115281478
o5
v0
n2.0
o5
v1
n-0.5
o0
v1
n-0.4
o44
o0
o2
n-1.27
o5
o0
v0
n-1.33
n2.0
o2
n-2.6
o5
o0
v1
n-0.4
n2.0
o2
o2
o2
o2
n-0.072620825
v0
o5
v1
n-0.63
o0
o2
n-8.4
v1
n5.292000000000001
o44
o0
o2
n-4.2
o5
o0
v1
n-0.63
n2.0
o2
n-1.43
o5
o0
v0
n-0.75
n2.0
o2
o2
o2
o2
n-0.022169515
o5
v0
n2.0
o5
v1
n-0.5
o0
o2
n-5.2
v1
n2.08
o44
o0
o2
n-1.27
o5
o0
v0
n-1.33
n2.0
o2
n-2.6
o5
o0
v1
n-0.4
n2.0
o2
o2
o2
o2
n-1.0541110016
v0
o5
v1
n0.6000000000000001
o0
v1
n-0.65
o44
o0
o2
n-0.38
o5
o0
v1
n-0.65
n2.0
o2
n-0.99
o5
o0
v0
n-0.73
n2.0
o2
o2
o2
o2
n-0.38374214399999995
o5
v0
n2.0
o5
v1
n-0.09999999999999998
o0
v1
n-0.56
o44
o0
o2
n-1.2
o5
o0
v1
n-0.56
n2.0
o2
n-0.92
o5
o0
v0
n-0.2
n2.0
o2
o2
o2
o2
n-0.018886571999999997
o5
v0
n3.0
o5
v1
n1.5
o0
v1
n-0.09
o44
o0
o2
n-0.9
o5
o0
v1
n-0.09
n2.0
o2
n-1.93
o5
o0
v0
n-2.32
n2.0
o2
o2
o2
o2
n-0.20461875000000002
o5
v0
n2.0
o5
v1
n0.5
o0
v1
n-0.86
o44
o0
o2
n-3.0
o5
o0
v0
n-0.99
n2.0
o2
n-25.0
o5
o0
v1
n-0.86
n2.0
o2
o2
o2
o2
n-0.0281870958
o5
v0
n3.0
o5
v1
n-0.27
o0
o2
n-10.6
v1
n10.706
o44
o0
o2
n-5.3
o5
o0
v1
n-1.01
n2.0
o2
n-0.87
o5
o0
v0
n-0.68
n2.0
o2
o2
o2
o2
n-0.256536756
o5
v0
n3.0
o5
v1
n0.5
o0
v1
n-0.85
o44
o0
o2
n-1.4
o5
o0
v0
n-1.47
n2.0
o2
n-4.2
o5
o0
v1
n-0.85
n2.0
o2
o2
o2
o2
n-0.1302345792
o5
v0
n2.0
o5
v1
n-0.8
o0
v1
n-0.45
o44
o0
o2
n-4.4
o5
o0
v1
n-0.45
n2.0
o2
n-0.82
o5
o0
v0
n-1.11
n2.0
o2
o2
o2
o2
n-0.18965693600000003
o5
v0
n3.0
o5
v1
n0.33000000000000007
o0
o2
n-2.4
v1
n2.7359999999999998
o44
o0
o2
n-0.97
o5
o0
v0
n-0.48
n2.0
o2
n-1.2
o5
o0
v1
n-1.14
n2.0
o2
o2
o2
o2
o2
n0.34223808
o5
v0
n3.0
o5
v1
n1.33
o0
v1
n-1.14
o0
o2
n-2.4
v1
n2.7359999999999998
o44
o0
o2
n-0.97
o5
o0
v0
n-0.48
n2.0
o2
n-1.2
o5
o0
v1
n-1.14
n2.0
o2
o2
o2
o2
o2
n1.648689
v0
o5
v1
n0.37
o0
v1
n-0.63
o0
o2
n-8.4
v1
n5.292000000000001
o44
o0
o2
n-4.2
o5
o0
v1
n-0.63
n2.0
o2
n-1.43
o5
o0
v0
n-0.75
n2.0
o2
o2
o2
o2
o2
n0.409292076
o5
v0
n3.0
o5
v1
n0.73
o0
v1
n-1.01
o0
o2
n-10.6
v1
n10.706
o44
o0
o2
n-5.3
o5
o0
v1
n-1.01
n2.0
o2
n-0.87
o5
o0
v0
n-0.68
n2.0
o2
o2
o2
o2
o2
n0.230562956
o5
v0
n2.0
o5
v1
n0.5
o0
v1
n-0.4
o0
o2
n-5.2
v1
n2.08
o44
o0
o2
n-1.27
o5
o0
v0
n-1.33
n2.0
o2
n-2.6
o5
o0
v1
n-0.4
n2.0
o2
o2
o2
o2
o2
n-0.007554628799999999
o5
v0
n3.0
o5
v1
n2.5
o0
v1
n-0.09
o0
o2
n-1.8
v1
n0.162
o44
o0
o2
n-0.9
o5
o0
v1
n-0.09
n2.0
o2
n-1.93
o5
o0
v0
n-2.32
n2.0
o2
o2
o2
o2
o2
n-0.13641250000000002
o5
v0
n2.0
o5
v1
n1.5
o0
v1
n-0.86
o0
o2
n-50.0
v1
n43.0
o44
o0
o2
n-3.0
o5
o0
v0
n-0.99
n2.0
o2
n-25.0
o5
o0
v1
n-0.86
n2.0
o2
o2
o2
o2
o2
n-0.651172896
o5
v0
n2.0
o5
v1
n0.2
o0
v1
n-0.45
o0
o2
n-8.8
v1
n3.9600000000000004
o44
o0
o2
n-4.4
o5
o0
v1
n-0.45
n2.0
o2
n-0.82
o5
o0
v0
n-1.11
n2.0
o2
o2
o2
o2
o2
n-0.658819376
v0
o5
v1
n1.6
o0
v1
n-0.65
o0
o2
n-0.76
v1
n0.49400000000000005
o44
o0
o2
n-0.38
o5
o0
v1
n-0.65
n2.0
o2
n-0.99
o5
o0
v0
n-0.73
n2.0
o2
o2
o2
o2
o2
n-0.171024504
o5
v0
n3.0
o5
v1
n1.5
o0
v1
n-0.85
o0
o2
n-8.4
v1
n7.14
o44
o0
o2
n-1.4
o5
o0
v0
n-1.47
n2.0
o2
n-4.2
o5
o0
v1
n-0.85
n2.0
o2
o2
o2
o2
o2
n-0.42638015999999995
o5
v0
n2.0
o5
v1
n0.9
o0
v1
n-0.56
o0
o2
n-2.4
v1
n1.344
o44
o0
o2
n-1.2
o5
o0
v1
n-0.56
n2.0
o2
n-0.92
o5
o0
v0
n-0.2
n2.0
O10 0
o54
55
o2
n0.21934324
o5
v0
n3.0
o2
n0.59486158
o5
v1
n-0.63
o2
n-1.8769831200000002
o5
v1
n-0.20999999999999996
o2
o2
n1.38698816
o5
v1
n0.6000000000000001
o44
o0
o2
n-0.38
o5
o0
v1
n-0.65
n2.0
o2
n-0.99
o5
o0
v0
n-0.73
n2.0
o2
o2
n0.20628428699999998
o5
v1
n-0.63
o5
v0
n2.0
o2
o2
n-0.072620825
o5
v1
n-0.63
o44
o0
o2
n-4.2
o5
o0
v1
n-0.63
n2.0
o2
n-1.43
o5
o0
v0
n-0.75
n2.0
o2
o2
n-2.1618036
o5
v1
n1.4
o44
o16
o5
v0
n2.0
o2
o2
n-1.104607435
v0
o5
v1
n0.07499999999999996
o2
o2
o2
n0.029598767999999998
v0
o5
v1
n-0.8
o44
o0
o2
n-4.4
o5
o0
v1
n-0.45
n2.0
o2
n-0.82
o5
o0
v0
n-1.11
n2.0
o2
o2
o2
n0.09162027
o5
v1
n0.5
o5
v0
n2.0
o44
o0
o2
n-1.4
o5
o0
v0
n-1.47
n2.0
o2
n-4.2
o5
o0
v1
n-0.85
n2.0
o2
o2
o2
n1.648689
o5
v1
n0.37
o0
v1
n-0.63
o44
o0
o2
n-4.2
o5
o0
v1
n-0.63
n2.0
o2
n-1.43
o5
o0
v0
n-0.75
n2.0
o2
o2
o2
n0.03147762
o5
v1
n1.5
o5
v0
n2.0
o44
o0
o2
n-0.9
o5
o0
v1
n-0.09
n2.0
o2
n-1.93
o5
o0
v0
n-2.32
n2.0
o2
o2
o2
n0.008184750000000001
v0
o5
v1
n0.5
o44
o0
o2
n-3.0
o5
o0
v0
n-0.99
n2.0
o2
n-25.0
o5
o0
v1
n-0.86
n2.0
o2
o2
o2
n4.3236072
o5
v1
n1.4
o5
v0
n2.0
o44
o16
o5
v0
n2.0
o2
o2
o2
n0.2903717
v0
o5
v1
n-0.5
o44
o2
n-1.0
v0
o2
o2
o2
n2.814388
o5
v1
n1.5
o5
v0
n4.0
o44
o16
o5
v0
n2.0
o2
o2
o2
n0.0336830264
o5
v1
n0.06000000000000005
o5
v0
n7.0
o44
o2
n-1.0
v0
o2
o2
o2
n0.31978512
v0
o5
v1
n-0.09999999999999998
o44
o0
o2
n-1.2
o5
o0
v1
n-0.56
n2.0
o2
n-0.92
o5
o0
v0
n-0.2
n2.0
o2
o2
o2
n1.9674846
o5
v1
n2.0
o5
v0
n3.0
o44
o16
o5
v0
n2.0
o2
o2
o2
n-0.04433903
v0
o5
v1
n-0.5
o44
o0
o2
n-1.27
o5
o0
v0
n-1.33
n2.0
o2
n-2.6
o5
o0
v1
n-0.4
n2.0
o2
o2
o2
n-0.568970808
o5
v1
n0.33000000000000007
o5
v0
n2.0
o44
o0
o2
n-0.97
o5
o0
v0
n-0.48
n2.0
o2
n-1.2
o5
o0
v1
n-1.14
n2.0
o2
o2
o2
n-4.221582
o5
v1
n1.5
o5
v0
n2.0
o44
o16
o5
v0
n2.0
o2
o2
o2
n-0.14518585
o5
v1
n-0.5
o5
v0
n2.0
o44
o2
n-1.0
v0
o2
o2
o2
n-0.658819376
o5
v1
n1.6
o0
v1
n-0.65
o44
o0
o2
n-0.38
o5
o0
v1
n-0.65
n2.0
o2
n-0.99
o5
o0
v0
n-0.73
n2.0
o2
o2
o2
n-0.0845612874
o5
v1
n-0.27
o5
v0
n2.0
o44
o0
o2
n-5.3
o5
o0
v1
n-1.01
n2.0
o2
n-0.87
o5
o0
v0
n-0.68
n2.0
o2
o2
o2
n-0.23578118480000002
o5
v1
n0.06000000000000005
o5
v0
n6.0
o44
o2
n-1.0
v0
o2
o2
o2
n-1.9674846
v0
o5
v1
n2.0
o44
o16
o5
v0
n2.0
o2
o2
o2
o2
n0.014799383999999999
o5
v1
n-0.8
o5
v0
n2.0
o0
o2
n-1.64
v0
n1.8204
o44
o0
o2
n-4.4
o5
o0
v1
n-0.45
n2.0
o2
n-0.82
o5
o0
v0
n-1.11
n2.0
o2
o2
o2
o2
n1.02671424
o5
v1
n1.33
o5
v0
n2.0
o0
v1
n-1.14
o44
o0
o2
n-0.97
o5
o0
v0
n-0.48
n2.0
o2
n-1.2
o5
o0
v1
n-1.14
n2.0
o2
o2
o2
o2
n0.0040923750000000005
o5
v1
n0.5
o5
v0
n2.0
o0
o2
n-6.0
v0
n5.9399999999999995
o44
o0
o2
n-3.0
o5
o0
v0
n-0.99
n2.0
o2
n-25.0
o5
o0
v1
n-0.86
n2.0
o2
o2
o2
o2
n1.227876228
o5
v1
n0.73
o5
v0
n2.0
o0
v1
n-1.01
o44
o0
o2
n-5.3
o5
o0
v1
n-1.01
n2.0
o2
n-0.87
o5
o0
v0
n-0.68
n2.0
o2
o2
o2
o2
n0.010492539999999998
o5
v1
n1.5
o5
v0
n3.0
o0
o2
n-3.86
v0
n8.9552
o44
o0
o2
n-0.9
o5
o0
v1
n-0.09
n2.0
o2
n-1.93
o5
o0
v0
n-2.32
n2.0
o2
o2
o2
o2
n1.38698816
v0
o5
v1
n0.6000000000000001
o0
o2
n-1.98
v0
n1.4454
o44
o0
o2
n-0.38
o5
o0
v1
n-0.65
n2.0
o2
n-0.99
o5
o0
v0
n-0.73
n2.0
o2
o2
o2
o2
n0.03054009
o5
v1
n0.5
o5
v0
n3.0
o0
o2
n-2.8
v0
n4.116
o44
o0
o2
n-1.4
o5
o0
v0
n-1.47
n2.0
o2
n-4.2
o5
o0
v1
n-0.85
n2.0
o2
o2
o2
o2
n0.15989256
o5
v1
n-0.09999999999999998
o5
v0
n2.0
o0
o2
n-1.84
v0
n0.36800000000000005
o44
o0
o2
n-1.2
o5
o0
v1
n-0.56
n2.0
o2
n-0.92
o5
o0
v0
n-0.2
n2.0
o2
o2
o2
o2
n0.461125912
v0
o5
v1
n0.5
o0
v1
n-0.4
o44
o0
o2
n-1.27
o5
o0
v0
n-1.33
n2.0
o2
n-2.6
o5
o0
v1
n-0.4
n2.0
o2
o2
o2
o2
n-0.072620825
v0
o5
v1
n-0.63
o0
o2
n-2.86
v0
n2.145
o44
o0
o2
n-4.2
o5
o0
v1
n-0.63
n2.0
o2
n-1.43
o5
o0
v0
n-0.75
n2.0
o2
o2
o2
o2
n-0.0226638864
o5
v1
n2.5
o5
v0
n2.0
o0
v1
n-0.09
o44
o0
o2
n-0.9
o5
o0
v1
n-0.09
n2.0
o2
n-1.93
o5
o0
v0
n-2.32
n2.0
o2
o2
o2
o2
n-0.022169515
o5
v1
n-0.5
o5
v0
n2.0
o0
o2
n-2.54
v0
n3.3782
o44
o0
o2
n-1.27
o5
o0
v0
n-1.33
n2.0
o2
n-2.6
o5
o0
v1
n-0.4
n2.0
o2
o2
o2
o2
n-0.0281870958
o5
v1
n-0.27
o5
v0
n3.0
o0
o2
n-1.74
v0
n1.1832
o44
o0
o2
n-5.3
o5
o0
v1
n-1.01
n2.0
o2
n-0.87
o5
o0
v0
n-0.68
n2.0
o2
o2
o2
o2
n-0.513073512
o5
v1
n1.5
o5
v0
n2.0
o0
v1
n-0.85
o44
o0
o2
n-1.4
o5
o0
v0
n-1.47
n2.0
o2
n-4.2
o5
o0
v1
n-0.85
n2.0
o2
o2
o2
o2
n-0.27282500000000004
v0
o5
v1
n1.5
o0
v1
n-0.86
o44
o0
o2
n-3.0
o5
o0
v0
n-0.99
n2.0
o2
n-25.0
o5
o0
v1
n-0.86
n2.0
o2
o2
o2
o2
n-1.302345792
v0
o5
v1
n0.2
o0
v1
n-0.45
o44
o0
o2
n-4.4
o5
o0
v1
n-0.45
n2.0
o2
n-0.82
o5
o0
v0
n-1.11
n2.0
o2
o2
o2
o2
n-0.18965693600000003
o5
v1
n0.33000000000000007
o5
v0
n3.0
o0
o2
n-1.94
v0
n0.9311999999999999
o44
o0
o2
n-0.97
o5
o0
v0
n-0.48
n2.0
o2
n-1.2
o5
o0
v1
n-1.14
n2.0
o2
o2
o2
o2
n-0.8527603199999999
v0
o5
v1
n0.9
o0
v1
n-0.56
o44
o0
o2
n-1.2
o5
o0
v1
n-0.56
n2.0
o2
n-0.92
o5
o0
v0
n-0.2
n2.0
o2
o2
o2
o2
o2
n0.34223808
o5
v1
n1.33
o5
v0
n3.0
o0
v1
n-1.14
o0
o2
n-1.94
v0
n0.9311999999999999
o44
o0
o2
n-0.97
o5
o0
v0
n-0.48
n2.0
o2
n-1.2
o5
o0
v1
n-1.14
n2.0
o2
o2
o2
o2
o2
n1.648689
v0
o5
v1
n0.37
o0
v1
n-0.63
o0
o2
n-2.86
v0
n2.145
o44
o0
o2
n-4.2
o5
o0
v1
n-0.63
n2.0
o2
n-1.43
o5
o0
v0
n-0.75
n2.0
o2
o2
o2
o2
o2
n0.409292076
o5
v1
n0.73
o5
v0
n3.0
o0
v1
n-1.01
o0
o2
n-1.74
v0
n1.1832
o44
o0
o2
n-5.3
o5
o0
v1
n-1.01
n2.0
o2
n-0.87
o5
o0
v0
n-0.68
n2.0
o2
o2
o2
o2
o2
n0.230562956
o5
v1
n0.5
o5
v0
n2.0
o0
v1
n-0.4
o0
o2
n-2.54
v0
n3.3782
o44
o0
o2
n-1.27
o5
o0
v0
n-1.33
n2.0
o2
n-2.6
o5
o0
v1
n-0.4
n2.0
o2
o2
o2
o2
o2
n-0.007554628799999999
o5
v1
n2.5
o5
v0
n3.0
o0
v1
n-0.09
o0
o2
n-3.86
v0
n8.9552
o44
o0
o2
n-0.9
o5
o0
v1
n-0.09
n2.0
o2
n-1.93
o5
o0
v0
n-2.32
n2.0
o2
o2
o2
o2
o2
n-0.13641250000000002
o5
v1
n1.5
o5
v0
n2.0
o0
v1
n-0.86
o0
o2
n-6.0
v0
n5.9399999999999995
o44
o0
o2
n-3.0
o5
o0
v0
n-0.99
n2.0
o2
n-25.0
o5
o0
v1
n-0.86
n2.0
o2
o2
o2
o2
o2
n-0.651172896
o5
v1
n0.2
o5
v0
n2.0
o0
v1
n-0.45
o0
o2
n-1.64
v0
n1.8204
o44
o0
o2
n-4.4
o5
o0
v1
n-0.45
n2.0
o2
n-0.82
o5
o0
v0
n-1.11
n2.0
o2
o2
o2
o2
o2
n-0.658819376
v0
o5
v1
n1.6
o0
v1
n-0.65
o0
o2
n-1.98
v0
n1.4454
o44
o0
o2
n-0.38
o5
o0
v1
n-0.65
n2.0
o2
n-0.99
o5
o0
v0
n-0.73
n2.0
o2
o2
o2
o2
o2
n-0.171024504
o5
v1
n1.5
o5
v0
n3.0
o0
v1
n-0.85
o0
o2
n-2.8
v0
n4.116
o44
o0
o2
n-1.4
o5
o0
v0
n-1.47
n2.0
o2
n-4.2
o5
o0
v1
n-0.85
n2.0
o2
o2
o2
o2
o2
n-0.42638015999999995
o5
v1
n0.9
o5
v0
n2.0
o0
v1
n-0.56
o0
o2
n-1.84
v0
n0.36800000000000005
o44
o0
o2
n-1.2
o5
o0
v1
n-0.56
n2.0
o2
n-0.92
o5
o0
v0
n-0.2
n2.0
O11 0
o0
o54
6
o2
n0.2729676351917065
o5
o0
o16
o3
n1
v1
n1
n0.165
o2
n-1.106482113619369
o5
o0
o16
o3
n1
v1
n1
n0.243
o2
n27.748806842659924
o5
o0
o16
o3
n1
v1
n1
n0.498
o2
n-34.01756141062687
o5
o0
o16
o3
n1
v1
n1
n0.564
o2
n9.815362300266182
o5
o0
o16
o3
n1
v1
n1
n0.717
o2
n65.7039717441813
o5
o0
o16
o3
n1
v1
n1
n12.621
n1.0
O12 0
o44
o2
v1
o54
6
o2
n7.91278554789447
o5
o0
o16
o3
n1
v1
n1
n0.395
o2
n-14.912016731516744
o5
o0
o16
o3
n1
v1
n1
n0.432
o2
n5.351652597227101
o5
o0
o16
o3
n1
v1
n1
n0.604
o2
n-3.875832207589477
o5
o0
o16
o3
n1
v1
n1
n0.994
o2
n-6.953692859831638
o5
o0
o16
o3
n1
v1
n1
n4.823
o2
n3685.8600260352014
o5
o0
o16
o3
n1
v1
n1
n18.36
O13 0
n0.0
x2
0 1.00000001
1 1.0
r
b
3
3
k1
0
G0 2
0 0
1 1.6359660572
G1 1
0 0
G2 1
0 0
G3 1
1 0
G4 1
1 0
G5 2
0 0
1 0
G6 2
0 0
1 0
G7 2
0 0
1 0
G8 2
0 0
1 0
G9 2
0 0
1 0
G10 2
0 0
1 0
G11 1
1 0
G12 1
1 0
